10J3M/DAT/10J3MNTA-19.dat
10 3
25.7779 664.5001
22.5098 506.6911
21.1551 447.5383
29.6874 881.3417
34.5408 1193.0669
24.5943 604.8796
25.2924 639.7055
11.613 134.8618
27.341 747.5303
25.4025 645.287
1616.3506