10J3M/SOL/10J3MNTA-19.sol
solution status: optimal solution found
objective value:                     72.4292305274359
x#1#3                                               1 	(obj:0)
x#2#1                               0.588092366295783 	(obj:0)
x#2#2                               0.411907633704217 	(obj:0)
x#3#1                                               1 	(obj:0)
x#4#2                                               1 	(obj:0)
x#5#2                               0.659276580719278 	(obj:0)
x#5#3                               0.340723419280722 	(obj:0)
x#7#2                               0.121171124259834 	(obj:0)
x#7#3                               0.878828875740166 	(obj:0)
x#8#3                               0.549171505686393 	(obj:0)
x#9#1                               0.121171476434446 	(obj:0)
x#9#2                               0.878828523565554 	(obj:0)
x#10#1                                              1 	(obj:0)
z                                    72.4292305274359 	(obj:1)
